674
1 0 5 641 1 624 1 625 1 626 1 627 1
2 0 5 189 1 631 1 632 1 633 1 634 1
3 0 5 483 1 186 1 394 1 556 1 230 1
4 0 5 414 1 554 1 594 1 499 1 513 1
5 0 5 579 1 246 1 447 1 532 1 593 1
6 0 5 308 1 211 1 503 1 556 1 350 1
7 0 5 572 1 243 1 491 1 90 1 416 1
8 0 5 452 1 469 1 258 1 341 1 230 1
9 0 5 54 1 299 1 528 1 111 1 11 1
10 0 5 574 1 295 1 428 1 372 1 336 1
11 0 5 473 1 612 1 111 1 54 1 528 1
12 0 5 487 1 32 1 580 1 330 1 336 1
13 0 5 41 1 84 1 98 1 137 1 127 1
14 0 5 403 1 203 1 183 1 555 1 565 1
15 0 5 141 1 324 1 543 1 518 1 349 1
16 0 5 222 1 253 1 52 1 182 1 391 1
17 0 5 194 1 63 1 508 1 22 1 542 1
18 0 5 529 1 145 1 521 1 509 1 268 1
19 0 5 577 1 117 1 136 1 511 1 332 1
20 0 5 108 1 287 1 503 1 308 1 457 1
21 0 5 109 1 43 1 46 1 413 1 381 1
22 0 5 209 1 406 1 542 1 17 1 194 1
23 0 5 578 1 241 1 206 1 426 1 610 1
24 0 5 511 1 193 1 61 1 136 1 117 1
25 0 5 213 1 575 1 195 1 66 1 502 1
26 0 5 177 1 379 1 44 1 39 1 254 1
27 0 5 587 1 325 1 431 1 516 1 456 1
28 0 5 602 1 264 1 488 1 540 1 138 1
29 0 5 371 1 96 1 390 1 255 1 608 1
30 0 5 273 1 297 1 95 1 558 1 475 1
31 0 5 391 1 173 1 64 1 87 1 222 1
32 0 5 216 1 12 1 353 1 487 1 336 1
33 0 5 420 1 218 1 284 1 571 1 464 1
34 0 5 101 1 531 1 336 1 580 1 574 1
35 0 5 383 1 434 1 356 1 372 1 611 1
36 0 5 126 1 527 1 77 1 386 1 537 1
37 0 5 392 1 127 1 84 1 301 1 366 1
38 0 5 422 1 202 1 60 1 327 1 185 1
39 0 5 400 1 26 1 399 1 177 1 485 1
40 0 5 293 1 430 1 439 1 333 1 524 1
41 0 5 84 1 247 1 146 1 605 1 13 1
42 0 5 97 1 412 1 546 1 285 1 364 1
43 0 5 21 1 125 1 381 1 315 1 313 1
44 0 5 338 1 26 1 290 1 312 1 318 1
45 0 5 496 1 501 1 519 1 191 1 290 1
46 0 5 413 1 500 1 21 1 253 1 313 1
47 0 5 167 1 454 1 94 1 110 1 122 1
48 0 5 291 1 357 1 135 1 129 1 86 1
49 0 5 455 1 479 1 443 1 152 1 359 1
50 0 5 151 1 362 1 124 1 592 1 110 1
51 0 5 138 1 467 1 498 1 106 1 325 1
52 0 5 253 1 271 1 545 1 391 1 16 1
53 0 5 219 1 156 1 509 1 180 1 521 1
54 0 5 9 1 528 1 11 1 111 1 473 1
55 0 5 232 1 507 1 131 1 628 1 629 1
56 0 5 61 1 343 1 274 1 549 1 227 1
57 0 5 496 1 288 1 378 1 176 1 58 1
58 0 5 288 1 596 1 242 1 347 1 515 1
59 0 5 421 1 579 1 320 1 246 1 5 1
60 0 5 373 1 327 1 296 1 228 1 38 1
61 0 5 56 1 305 1 136 1 24 1 85 1
62 0 5 67 1 233 1 494 1 581 1 535 1
63 0 5 508 1 17 1 194 1 542 1 368 1
64 0 5 285 1 546 1 87 1 31 1 188 1
65 0 5 310 1 548 1 446 1 510 1 554 1
66 0 5 213 1 195 1 25 1 342 1 174 1
67 0 5 581 1 62 1 104 1 535 1 233 1
68 0 5 586 1 470 1 81 1 125 1 442 1
69 0 5 292 1 118 1 461 1 536 1 196 1
70 0 5 442 1 381 1 85 1 549 1 470 1
71 0 5 573 1 113 1 158 1 504 1 472 1
72 0 5 415 1 349 1 324 1 559 1 116 1
73 0 5 134 1 245 1 360 1 358 1 563 1
74 0 5 279 1 326 1 114 1 264 1 106 1
75 0 5 607 1 333 1 439 1 433 1 335 1
76 0 5 402 1 561 1 630 1 631 1 632 1
77 0 5 286 1 363 1 352 1 36 1 486 1
78 0 5 417 1 354 1 197 1 314 1 192 1
79 0 5 277 1 458 1 435 1 210 1 441 1
80 0 5 584 1 272 1 309 1 373 1 169 1
81 0 5 586 1 68 1 427 1 542 1 470 1
82 0 5 130 1 548 1 263 1 307 1 510 1
83 0 5 599 1 427 1 155 1 387 1 368 1
84 0 5 41 1 112 1 392 1 37 1 401 1
85 0 5 549 1 311 1 70 1 381 1 136 1
86 0 5 357 1 172 1 524 1 48 1 135 1
87 0 5 188 1 546 1 64 1 389 1 31 1
88 0 5 507 1 131 1 492 1 55 1 609 1
89 0 5 409 1 340 1 119 1 429 1 502 1
90 0 5 583 1 400 1 485 1 7 1 243 1
91 0 5 157 1 182 1 222 1 480 1 576 1
92 0 5 191 1 519 1 522 1 254 1 290 1
93 0 5 459 1 139 1 568 1 129 1 100 1
94 0 5 382 1 122 1 47 1 102 1 208 1
95 0 5 423 1 436 1 239 1 30 1 297 1
96 0 5 608 1 29 1 371 1 390 1 432 1
97 0 5 259 1 364 1 42 1 412 1 564 1
98 0 5 533 1 605 1 41 1 13 1 137 1
99 0 5 240 1 276 1 567 1 543 1 407 1
100 0 5 129 1 585 1 265 1 93 1 558 1
101 0 5 34 1 580 1 531 1 336 1 372 1
102 0 5 358 1 208 1 395 1 382 1 94 1
103 0 5 495 1 105 1 437 1 215 1 351 1
104 0 5 516 1 67 1 456 1 361 1 581 1
105 0 5 103 1 437 1 143 1 260 1 495 1
106 0 5 326 1 467 1 51 1 114 1 74 1
107 0 5 275 1 120 1 507 1 164 1 249 1
108 0 5 20 1 287 1 210 1 441 1 458 1
109 0 5 21 1 117 1 311 1 136 1 381 1
110 0 5 302 1 124 1 454 1 132 1 229 1
111 0 5 528 1 11 1 54 1 9 1 473 1
112 0 5 84 1 137 1 401 1 41 1 127 1
113 0 5 472 1 71 1 158 1 525 1 504 1
114 0 5 355 1 448 1 74 1 106 1 467 1
115 0 5 217 1 339 1 438 1 147 1 370 1
116 0 5 444 1 184 1 415 1 221 1 152 1
117 0 5 109 1 511 1 337 1 311 1 136 1
118 0 5 69 1 260 1 589 1 351 1 461 1
119 0 5 328 1 573 1 220 1 429 1 340 1
120 0 5 207 1 275 1 107 1 271 1 545 1
121 0 5 232 1 411 1 142 1 55 1 76 1
122 0 5 167 1 606 1 94 1 267 1 382 1
123 0 5 242 1 385 1 515 1 250 1 58 1
124 0 5 454 1 214 1 50 1 110 1 47 1
125 0 5 586 1 315 1 43 1 68 1 442 1
126 0 5 486 1 36 1 527 1 386 1 286 1
127 0 5 37 1 401 1 112 1 301 1 392 1
128 0 5 169 1 422 1 421 1 320 1 228 1
129 0 5 100 1 459 1 238 1 48 1 93 1
130 0 5 510 1 548 1 310 1 82 1 560 1
131 0 5 55 1 507 1 88 1 232 1 628 1
132 0 5 359 1 152 1 302 1 110 1 366 1
133 0 5 589 1 260 1 143 1 495 1 105 1
134 0 5 73 1 563 1 358 1 360 1 168 1
135 0 5 291 1 196 1 172 1 357 1 48 1
136 0 5 311 1 85 1 61 1 549 1 381 1
137 0 5 112 1 277 1 84 1 98 1 321 1
138 0 5 51 1 498 1 602 1 466 1 467 1
139 0 5 432 1 568 1 93 1 140 1 459 1
140 0 5 568 1 170 1 590 1 461 1 536 1
141 0 5 15 1 518 1 324 1 543 1 72 1
142 0 5 232 1 411 1 505 1 55 1 121 1
143 0 5 162 1 260 1 133 1 437 1 105 1
144 0 5 517 1 344 1 565 1 377 1 175 1
145 0 5 181 1 18 1 497 1 562 1 529 1
146 0 5 251 1 247 1 41 1 229 1 392 1
147 0 5 289 1 217 1 339 1 165 1 27 1
148 0 5 522 1 92 1 318 1 305 1 312 1
149 0 5 600 1 353 1 237 1 362 1 557 1
150 0 5 419 1 303 1 551 1 266 1 406 1
151 0 5 50 1 592 1 600 1 359 1 124 1
152 0 5 479 1 132 1 366 1 443 1 116 1
153 0 5 355 1 582 1 299 1 448 1 541 1
154 0 5 171 1 570 1 398 1 490 1 460 1
155 0 5 204 1 368 1 542 1 427 1 83 1
156 0 5 523 1 504 1 53 1 180 1 113 1
157 0 5 173 1 91 1 480 1 182 1 490 1
158 0 5 220 1 71 1 573 1 113 1 525 1
159 0 5 480 1 490 1 576 1 303 1 157 1
160 0 5 369 1 313 1 500 1 413 1 43 1
161 0 5 348 1 543 1 418 1 240 1 184 1
162 0 5 143 1 607 1 333 1 439 1 433 1
163 0 5 190 1 436 1 95 1 316 1 273 1
164 0 5 249 1 564 1 97 1 107 1 492 1
165 0 5 289 1 147 1 339 1 553 1 217 1
166 0 5 252 1 383 1 294 1 425 1 335 1
167 0 5 47 1 122 1 606 1 94 1 267 1
168 0 5 563 1 248 1 216 1 323 1 134 1
169 0 5 228 1 128 1 422 1 80 1 60 1
170 0 5 536 1 292 1 590 1 140 1 464 1
171 0 5 154 1 272 1 570 1 398 1 595 1
172 0 5 86 1 333 1 433 1 524 1 135 1
173 0 5 157 1 31 1 182 1 222 1 91 1
174 0 5 220 1 342 1 306 1 282 1 158 1
175 0 5 478 1 517 1 475 1 144 1 377 1
176 0 5 538 1 256 1 591 1 57 1 378 1
177 0 5 26 1 547 1 254 1 39 1 399 1
178 0 5 179 1 606 1 605 1 251 1 122 1
179 0 5 178 1 606 1 122 1 251 1 605 1
180 0 5 509 1 523 1 53 1 156 1 268 1
181 0 5 145 1 497 1 493 1 562 1 448 1
182 0 5 222 1 173 1 91 1 157 1 16 1
183 0 5 300 1 502 1 426 1 203 1 403 1
184 0 5 444 1 221 1 366 1 116 1 37 1
185 0 5 320 1 593 1 202 1 440 1 246 1
186 0 5 3 1 556 1 567 1 394 1 350 1
187 0 5 317 1 450 1 261 1 462 1 512 1
188 0 5 87 1 192 1 546 1 314 1 304 1
189 0 5 2 1 317 1 55 1 628 1 629 1
190 0 5 163 1 316 1 436 1 585 1 95 1
191 0 5 92 1 278 1 522 1 501 1 45 1
192 0 5 314 1 354 1 188 1 584 1 78 1
193 0 5 511 1 24 1 334 1 332 1 577 1
194 0 5 17 1 63 1 508 1 368 1 542 1
195 0 5 306 1 575 1 25 1 66 1 213 1
196 0 5 135 1 291 1 69 1 172 1 461 1
197 0 5 417 1 309 1 584 1 272 1 78 1
198 0 5 530 1 399 1 256 1 485 1 538 1
199 0 5 375 1 356 1 428 1 437 1 329 1
200 0 5 245 1 360 1 526 1 201 1 73 1
201 0 5 569 1 513 1 245 1 594 1 499 1
202 0 5 380 1 38 1 601 1 327 1 185 1
203 0 5 270 1 14 1 183 1 300 1 206 1
204 0 5 368 1 155 1 542 1 83 1 63 1
205 0 5 224 1 550 1 321 1 374 1 435 1
206 0 5 270 1 423 1 610 1 426 1 23 1
207 0 5 120 1 505 1 275 1 271 1 107 1
208 0 5 539 1 395 1 102 1 94 1 557 1
209 0 5 22 1 406 1 542 1 266 1 17 1
210 0 5 108 1 458 1 441 1 287 1 79 1
211 0 5 469 1 6 1 468 1 365 1 572 1
212 0 5 301 1 366 1 544 1 184 1 392 1
213 0 5 25 1 66 1 575 1 195 1 502 1
214 0 5 362 1 454 1 124 1 50 1 47 1
215 0 5 384 1 351 1 375 1 367 1 495 1
216 0 5 32 1 482 1 168 1 580 1 353 1
217 0 5 147 1 474 1 27 1 115 1 587 1
218 0 5 284 1 33 1 465 1 255 1 371 1
219 0 5 53 1 521 1 612 1 509 1 180 1
220 0 5 174 1 158 1 119 1 282 1 342 1
221 0 5 418 1 559 1 184 1 116 1 415 1
222 0 5 16 1 182 1 91 1 173 1 31 1
223 0 5 24 1 334 1 305 1 193 1 76 1
224 0 5 550 1 457 1 205 1 374 1 435 1
225 0 5 367 1 477 1 351 1 571 1 384 1
226 0 5 488 1 540 1 264 1 28 1 421 1
227 0 5 278 1 501 1 343 1 56 1 305 1
228 0 5 169 1 422 1 60 1 128 1 80 1
229 0 5 302 1 247 1 146 1 110 1 132 1
230 0 5 236 1 452 1 556 1 3 1 8 1
231 0 5 530 1 258 1 243 1 341 1 485 1
232 0 5 411 1 55 1 624 1 625 1 626 1
233 0 5 553 1 62 1 67 1 104 1 494 1
234 0 5 597 1 239 1 565 1 423 1 610 1
235 0 5 388 1 393 1 397 1 588 1 486 1
236 0 5 230 1 452 1 8 1 469 1 6 1
237 0 5 600 1 592 1 149 1 455 1 443 1
238 0 5 463 1 558 1 297 1 129 1 357 1
239 0 5 234 1 95 1 297 1 377 1 597 1
240 0 5 348 1 99 1 161 1 543 1 276 1
241 0 5 23 1 578 1 489 1 426 1 409 1
242 0 5 123 1 250 1 515 1 347 1 58 1
243 0 5 7 1 341 1 231 1 485 1 583 1
244 0 5 447 1 269 1 532 1 361 1 593 1
245 0 5 73 1 267 1 200 1 201 1 360 1
246 0 5 447 1 579 1 5 1 593 1 185 1
247 0 5 229 1 146 1 41 1 392 1 302 1
248 0 5 482 1 168 1 102 1 563 1 216 1
249 0 5 164 1 97 1 42 1 259 1 564 1
250 0 5 613 1 242 1 385 1 603 1 123 1
251 0 5 146 1 605 1 41 1 606 1 178 1
252 0 5 166 1 335 1 294 1 383 1 263 1
253 0 5 52 1 337 1 16 1 332 1 46 1
254 0 5 519 1 177 1 290 1 378 1 547 1
255 0 5 390 1 284 1 534 1 218 1 371 1
256 0 5 176 1 547 1 198 1 538 1 378 1
257 0 5 537 1 588 1 397 1 268 1 525 1
258 0 5 341 1 231 1 8 1 243 1 530 1
259 0 5 396 1 97 1 412 1 484 1 249 1
260 0 5 133 1 143 1 118 1 105 1 433 1
261 0 5 462 1 187 1 410 1 450 1 317 1
262 0 5 393 1 453 1 497 1 449 1 145 1
263 0 5 252 1 335 1 560 1 294 1 82 1
264 0 5 279 1 28 1 226 1 602 1 540 1
265 0 5 273 1 558 1 100 1 585 1 129 1
266 0 5 303 1 406 1 542 1 369 1 315 1
267 0 5 358 1 360 1 122 1 245 1 382 1
268 0 5 388 1 588 1 472 1 180 1 18 1
269 0 5 440 1 244 1 361 1 535 1 516 1
270 0 5 206 1 203 1 300 1 14 1 426 1
271 0 5 52 1 545 1 332 1 207 1 275 1
272 0 5 309 1 171 1 80 1 584 1 197 1
273 0 5 30 1 265 1 558 1 297 1 95 1
274 0 5 346 1 549 1 56 1 343 1 85 1
275 0 5 107 1 120 1 364 1 545 1 564 1
276 0 5 567 1 99 1 407 1 186 1 350 1
277 0 5 79 1 435 1 137 1 458 1 441 1
278 0 5 227 1 522 1 191 1 305 1 501 1
279 0 5 74 1 264 1 326 1 28 1 602 1
280 0 5 318 1 44 1 312 1 338 1 290 1
281 0 5 490 1 398 1 551 1 460 1 419 1
282 0 5 451 1 525 1 174 1 342 1 220 1
283 0 5 387 1 385 1 515 1 123 1 599 1
284 0 5 218 1 255 1 33 1 534 1 464 1
285 0 5 64 1 42 1 364 1 545 1 546 1
286 0 5 486 1 363 1 77 1 126 1 298 1
287 0 5 108 1 20 1 441 1 210 1 350 1
288 0 5 58 1 57 1 347 1 496 1 378 1
289 0 5 165 1 147 1 27 1 217 1 104 1
290 0 5 254 1 519 1 312 1 318 1 44 1
291 0 5 135 1 461 1 48 1 196 1 459 1
292 0 5 170 1 536 1 69 1 590 1 461 1
293 0 5 524 1 40 1 430 1 552 1 333 1
294 0 5 166 1 425 1 252 1 383 1 356 1
295 0 5 10 1 329 1 428 1 330 1 372 1
296 0 5 327 1 60 1 373 1 304 1 202 1
297 0 5 30 1 475 1 239 1 558 1 238 1
298 0 5 370 1 566 1 363 1 453 1 438 1
299 0 5 9 1 153 1 528 1 355 1 54 1
300 0 5 426 1 183 1 203 1 206 1 270 1
301 0 5 212 1 366 1 392 1 37 1 127 1
302 0 5 229 1 110 1 132 1 247 1 146 1
303 0 5 150 1 266 1 419 1 369 1 159 1
304 0 5 314 1 188 1 296 1 373 1 546 1
305 0 5 61 1 278 1 136 1 227 1 223 1
306 0 5 195 1 342 1 174 1 575 1 220 1
307 0 5 130 1 82 1 263 1 335 1 548 1
308 0 5 6 1 503 1 20 1 365 1 457 1
309 0 5 272 1 584 1 197 1 80 1 417 1
310 0 5 65 1 510 1 548 1 446 1 626 1
311 0 5 381 1 136 1 85 1 109 1 117 1
312 0 5 318 1 290 1 44 1 26 1 522 1
313 0 5 413 1 160 1 500 1 43 1 369 1
314 0 5 192 1 304 1 188 1 78 1 373 1
315 0 5 586 1 125 1 369 1 43 1 266 1
316 0 5 190 1 585 1 163 1 265 1 436 1
317 0 5 450 1 187 1 65 1 189 1 630 1
318 0 5 312 1 290 1 280 1 44 1 522 1
319 0 5 411 1 232 1 142 1 76 1 402 1
320 0 5 185 1 421 1 128 1 59 1 246 1
321 0 5 631 1 633 1 632 1 499 1 205 1
322 0 5 352 1 370 1 115 1 189 1 506 1
323 0 5 526 1 372 1 336 1 168 1 404 1
324 0 5 349 1 15 1 141 1 72 1 418 1
325 0 5 587 1 431 1 27 1 498 1 51 1
326 0 5 74 1 106 1 279 1 467 1 138 1
327 0 5 296 1 60 1 202 1 38 1 373 1
328 0 5 429 1 119 1 573 1 578 1 409 1
329 0 5 375 1 295 1 330 1 199 1 428 1
330 0 5 329 1 465 1 295 1 336 1 574 1
331 0 5 430 1 510 1 40 1 439 1 450 1
332 0 5 337 1 577 1 253 1 193 1 511 1
333 0 5 433 1 439 1 172 1 524 1 162 1
334 0 5 193 1 24 1 511 1 223 1 332 1
335 0 5 252 1 560 1 75 1 439 1 263 1
336 0 5 372 1 34 1 101 1 323 1 580 1
337 0 5 577 1 332 1 253 1 117 1 511 1
338 0 5 379 1 44 1 39 1 177 1 26 1
339 0 5 370 1 438 1 147 1 115 1 217 1
340 0 5 89 1 502 1 575 1 409 1 119 1
341 0 5 258 1 243 1 231 1 8 1 469 1
342 0 5 306 1 174 1 282 1 66 1 158 1
343 0 5 501 1 347 1 227 1 56 1 274 1
344 0 5 376 1 40 1 293 1 430 1 450 1
345 0 5 512 1 462 1 352 1 213 1 66 1
346 0 5 603 1 274 1 427 1 83 1 81 1
347 0 5 343 1 501 1 288 1 191 1 58 1
348 0 5 240 1 161 1 543 1 99 1 184 1
349 0 5 324 1 559 1 72 1 418 1 415 1
350 0 5 567 1 407 1 556 1 441 1 6 1
351 0 5 495 1 215 1 367 1 225 1 118 1
352 0 5 363 1 77 1 322 1 286 1 298 1
353 0 5 557 1 482 1 149 1 395 1 32 1
354 0 5 192 1 78 1 389 1 188 1 87 1
355 0 5 114 1 153 1 448 1 299 1 582 1
356 0 5 199 1 437 1 35 1 425 1 428 1
357 0 5 86 1 48 1 135 1 463 1 172 1
358 0 5 102 1 382 1 267 1 134 1 94 1
359 0 5 443 1 132 1 152 1 151 1 592 1
360 0 5 267 1 73 1 563 1 245 1 134 1
361 0 5 535 1 456 1 532 1 269 1 581 1
362 0 5 214 1 50 1 149 1 600 1 539 1
363 0 5 352 1 286 1 77 1 298 1 453 1
364 0 5 564 1 97 1 285 1 42 1 275 1
365 0 5 457 1 468 1 211 1 503 1 374 1
366 0 5 212 1 544 1 301 1 37 1 152 1
367 0 5 225 1 384 1 351 1 215 1 571 1
368 0 5 204 1 155 1 542 1 83 1 63 1
369 0 5 160 1 576 1 315 1 266 1 303 1
370 0 5 339 1 298 1 438 1 566 1 115 1
371 0 5 29 1 96 1 390 1 218 1 255 1
372 0 5 336 1 425 1 323 1 10 1 295 1
373 0 5 60 1 296 1 80 1 304 1 228 1
374 0 5 550 1 457 1 365 1 224 1 205 1
375 0 5 329 1 199 1 215 1 437 1 428 1
376 0 5 450 1 187 1 344 1 317 1 510 1
377 0 5 517 1 239 1 475 1 144 1 175 1
378 0 5 57 1 519 1 254 1 547 1 496 1
379 0 5 338 1 491 1 26 1 468 1 400 1
380 0 5 601 1 202 1 440 1 327 1 38 1
381 0 5 311 1 43 1 70 1 85 1 136 1
382 0 5 94 1 358 1 267 1 102 1 122 1
383 0 5 35 1 166 1 294 1 252 1 434 1
384 0 5 215 1 367 1 465 1 571 1 351 1
385 0 5 283 1 123 1 250 1 387 1 242 1
386 0 5 451 1 527 1 126 1 282 1 36 1
387 0 5 599 1 283 1 385 1 83 1 368 1
388 0 5 235 1 268 1 588 1 397 1 257 1
389 0 5 595 1 354 1 87 1 188 1 173 1
390 0 5 255 1 534 1 371 1 29 1 608 1
391 0 5 31 1 598 1 52 1 545 1 253 1
392 0 5 37 1 301 1 84 1 146 1 247 1
393 0 5 262 1 235 1 497 1 145 1 453 1
394 0 5 483 1 514 1 3 1 186 1 543 1
395 0 5 557 1 208 1 102 1 539 1 353 1
396 0 5 412 1 484 1 259 1 42 1 546 1
397 0 5 588 1 486 1 257 1 235 1 527 1
398 0 5 460 1 281 1 154 1 171 1 570 1
399 0 5 198 1 400 1 547 1 39 1 485 1
400 0 5 39 1 399 1 90 1 583 1 485 1
401 0 5 127 1 112 1 392 1 37 1 84 1
402 0 5 76 1 561 1 633 1 629 1 628 1
403 0 5 14 1 555 1 183 1 565 1 517 1
404 0 5 425 1 526 1 323 1 82 1 383 1
405 0 5 472 1 504 1 523 1 268 1 180 1
406 0 5 209 1 22 1 266 1 542 1 150 1
407 0 5 350 1 567 1 276 1 441 1 127 1
408 0 5 440 1 601 1 484 1 535 1 269 1
409 0 5 89 1 429 1 340 1 489 1 119 1
410 0 5 555 1 575 1 25 1 195 1 213 1
411 0 5 232 1 624 1 625 1 626 1 627 1
412 0 5 396 1 259 1 42 1 97 1 364 1
413 0 5 313 1 46 1 500 1 21 1 381 1
414 0 5 554 1 4 1 446 1 594 1 513 1
415 0 5 72 1 559 1 116 1 349 1 221 1
416 0 5 572 1 491 1 7 1 468 1 379 1
417 0 5 78 1 197 1 584 1 354 1 309 1
418 0 5 221 1 559 1 161 1 349 1 184 1
419 0 5 150 1 551 1 303 1 281 1 490 1
420 0 5 33 1 571 1 218 1 477 1 284 1
421 0 5 59 1 320 1 128 1 579 1 488 1
422 0 5 38 1 228 1 128 1 169 1 202 1
423 0 5 95 1 206 1 610 1 520 1 234 1
424 0 5 115 1 165 1 492 1 189 1 506 1
425 0 5 372 1 294 1 404 1 356 1 166 1
426 0 5 300 1 489 1 183 1 206 1 241 1
427 0 5 83 1 346 1 603 1 81 1 155 1
428 0 5 611 1 295 1 199 1 437 1 329 1
429 0 5 328 1 578 1 409 1 119 1 89 1
430 0 5 40 1 293 1 439 1 333 1 524 1
431 0 5 466 1 325 1 27 1 498 1 587 1
432 0 5 139 1 608 1 568 1 93 1 464 1
433 0 5 333 1 172 1 260 1 75 1 86 1
434 0 5 611 1 35 1 428 1 425 1 383 1
435 0 5 79 1 550 1 277 1 458 1 457 1
436 0 5 163 1 95 1 520 1 190 1 423 1
437 0 5 105 1 356 1 428 1 143 1 199 1
438 0 5 566 1 339 1 370 1 474 1 115 1
439 0 5 333 1 607 1 40 1 162 1 430 1
440 0 5 408 1 269 1 601 1 593 1 244 1
441 0 5 458 1 210 1 287 1 108 1 79 1
442 0 5 470 1 70 1 68 1 125 1 85 1
443 0 5 455 1 359 1 49 1 152 1 479 1
444 0 5 116 1 544 1 184 1 366 1 152 1
445 0 5 411 1 561 1 402 1 76 1 305 1
446 0 5 554 1 548 1 65 1 310 1 513 1
447 0 5 244 1 246 1 5 1 593 1 532 1
448 0 5 582 1 114 1 355 1 181 1 153 1
449 0 5 493 1 453 1 474 1 262 1 497 1
450 0 5 317 1 187 1 632 1 65 1 376 1
451 0 5 386 1 282 1 525 1 126 1 527 1
452 0 5 236 1 8 1 469 1 230 1 6 1
453 0 5 449 1 474 1 262 1 566 1 438 1
454 0 5 124 1 214 1 47 1 110 1 606 1
455 0 5 49 1 443 1 479 1 359 1 237 1
456 0 5 361 1 516 1 532 1 27 1 466 1
457 0 5 365 1 224 1 374 1 20 1 550 1
458 0 5 441 1 79 1 210 1 435 1 277 1
459 0 5 93 1 461 1 129 1 291 1 48 1
460 0 5 398 1 551 1 281 1 154 1 171 1
461 0 5 291 1 459 1 69 1 140 1 536 1
462 0 5 261 1 187 1 345 1 317 1 512 1
463 0 5 552 1 238 1 357 1 48 1 524 1
464 0 5 590 1 477 1 534 1 284 1 170 1
465 0 5 330 1 384 1 571 1 218 1 420 1
466 0 5 431 1 498 1 532 1 456 1 138 1
467 0 5 106 1 51 1 138 1 326 1 181 1
468 0 5 365 1 211 1 379 1 491 1 457 1
469 0 5 8 1 211 1 452 1 572 1 6 1
470 0 5 442 1 68 1 81 1 70 1 586 1
471 0 5 506 1 492 1 189 1 88 1 512 1
472 0 5 405 1 113 1 268 1 504 1 71 1
473 0 5 11 1 612 1 111 1 54 1 521 1
474 0 5 566 1 453 1 217 1 449 1 493 1
475 0 5 297 1 478 1 377 1 558 1 175 1
476 0 5 518 1 514 1 394 1 483 1 186 1
477 0 5 225 1 464 1 571 1 367 1 351 1
478 0 5 175 1 475 1 238 1 144 1 517 1
479 0 5 49 1 152 1 455 1 116 1 443 1
480 0 5 159 1 576 1 157 1 91 1 500 1
481 0 5 411 1 402 1 76 1 561 1 522 1
482 0 5 248 1 353 1 216 1 557 1 395 1
483 0 5 3 1 394 1 514 1 186 1 556 1
484 0 5 396 1 408 1 259 1 601 1 440 1
485 0 5 583 1 243 1 399 1 90 1 400 1
486 0 5 126 1 286 1 397 1 77 1 363 1
487 0 5 12 1 580 1 531 1 336 1 330 1
488 0 5 540 1 226 1 28 1 5 1 532 1
489 0 5 426 1 241 1 502 1 409 1 183 1
490 0 5 281 1 159 1 570 1 157 1 303 1
491 0 5 416 1 379 1 7 1 468 1 572 1
492 0 5 88 1 507 1 55 1 164 1 506 1
493 0 5 449 1 497 1 181 1 474 1 453 1
494 0 5 62 1 535 1 233 1 581 1 361 1
495 0 5 103 1 351 1 589 1 133 1 105 1
496 0 5 45 1 57 1 519 1 288 1 378 1
497 0 5 181 1 493 1 262 1 145 1 393 1
498 0 5 138 1 466 1 51 1 431 1 325 1
499 0 5 594 1 569 1 321 1 630 1 631 1
500 0 5 413 1 313 1 46 1 576 1 160 1
501 0 5 45 1 343 1 227 1 191 1 347 1
502 0 5 183 1 340 1 555 1 489 1 575 1
503 0 5 308 1 20 1 365 1 6 1 457 1
504 0 5 156 1 523 1 405 1 472 1 113 1
505 0 5 55 1 207 1 131 1 142 1 507 1
506 0 5 471 1 492 1 88 1 165 1 189 1
507 0 5 88 1 55 1 131 1 609 1 232 1
508 0 5 63 1 17 1 194 1 542 1 368 1
509 0 5 180 1 18 1 53 1 521 1 268 1
510 0 5 310 1 65 1 548 1 130 1 604 1
511 0 5 117 1 577 1 193 1 24 1 337 1
512 0 5 187 1 345 1 317 1 450 1 471 1
513 0 5 554 1 446 1 548 1 414 1 201 1
514 0 5 476 1 483 1 518 1 394 1 186 1
515 0 5 596 1 123 1 591 1 242 1 283 1
516 0 5 456 1 104 1 27 1 269 1 361 1
517 0 5 144 1 377 1 175 1 597 1 565 1
518 0 5 476 1 141 1 514 1 15 1 394 1
519 0 5 254 1 378 1 45 1 290 1 496 1
520 0 5 610 1 436 1 423 1 163 1 95 1
521 0 5 219 1 529 1 18 1 612 1 509 1
522 0 5 278 1 191 1 290 1 312 1 92 1
523 0 5 156 1 504 1 180 1 405 1 113 1
524 0 5 293 1 172 1 552 1 333 1 86 1
525 0 5 451 1 537 1 282 1 158 1 113 1
526 0 5 323 1 404 1 425 1 245 1 563 1
527 0 5 386 1 537 1 126 1 36 1 397 1
528 0 5 111 1 54 1 9 1 299 1 11 1
529 0 5 541 1 521 1 18 1 145 1 612 1
530 0 5 231 1 198 1 485 1 243 1 39 1
531 0 5 574 1 34 1 101 1 487 1 580 1
532 0 5 466 1 456 1 361 1 244 1 5 1
533 0 5 98 1 605 1 251 1 41 1 13 1
534 0 5 390 1 255 1 284 1 464 1 590 1
535 0 5 581 1 361 1 269 1 408 1 67 1
536 0 5 170 1 292 1 69 1 140 1 461 1
537 0 5 257 1 525 1 527 1 397 1 36 1
538 0 5 591 1 176 1 256 1 198 1 378 1
539 0 5 208 1 557 1 94 1 149 1 395 1
540 0 5 488 1 226 1 28 1 264 1 421 1
541 0 5 529 1 582 1 562 1 145 1 153 1
542 0 5 155 1 508 1 266 1 368 1 81 1
543 0 5 348 1 161 1 15 1 141 1 99 1
544 0 5 444 1 366 1 212 1 184 1 301 1
545 0 5 598 1 52 1 391 1 285 1 275 1
546 0 5 64 1 87 1 188 1 42 1 285 1
547 0 5 177 1 256 1 254 1 399 1 378 1
548 0 5 446 1 554 1 310 1 65 1 631 1
549 0 5 85 1 274 1 70 1 136 1 56 1
550 0 5 224 1 435 1 374 1 457 1 205 1
551 0 5 419 1 460 1 281 1 150 1 398 1
552 0 5 463 1 524 1 293 1 238 1 478 1
553 0 5 233 1 62 1 165 1 104 1 494 1
554 0 5 446 1 414 1 513 1 548 1 65 1
555 0 5 410 1 502 1 403 1 14 1 575 1
556 0 5 350 1 186 1 230 1 3 1 6 1
557 0 5 353 1 395 1 539 1 482 1 149 1
558 0 5 265 1 297 1 238 1 273 1 475 1
559 0 5 415 1 349 1 221 1 418 1 72 1
560 0 5 335 1 439 1 252 1 75 1 263 1
561 0 5 76 1 402 1 629 1 630 1 631 1
562 0 5 582 1 541 1 145 1 181 1 448 1
563 0 5 168 1 134 1 358 1 360 1 248 1
564 0 5 364 1 97 1 42 1 275 1 249 1
565 0 5 597 1 144 1 403 1 234 1 14 1
566 0 5 438 1 474 1 298 1 453 1 370 1
567 0 5 276 1 350 1 407 1 186 1 99 1
568 0 5 139 1 140 1 93 1 432 1 459 1
569 0 5 201 1 499 1 245 1 594 1 513 1
570 0 5 595 1 154 1 171 1 490 1 389 1
571 0 5 420 1 477 1 465 1 225 1 367 1
572 0 5 416 1 7 1 469 1 211 1 468 1
573 0 5 71 1 119 1 328 1 158 1 220 1
574 0 5 10 1 531 1 34 1 336 1 372 1
575 0 5 195 1 25 1 340 1 306 1 502 1
576 0 5 480 1 159 1 369 1 500 1 91 1
577 0 5 337 1 332 1 511 1 193 1 24 1
578 0 5 23 1 429 1 241 1 328 1 409 1
579 0 5 59 1 5 1 246 1 421 1 593 1
580 0 5 487 1 101 1 12 1 531 1 336 1
581 0 5 535 1 67 1 361 1 62 1 104 1
582 0 5 562 1 448 1 541 1 153 1 355 1
583 0 5 90 1 485 1 400 1 243 1 399 1
584 0 5 80 1 309 1 197 1 272 1 417 1
585 0 5 316 1 100 1 265 1 190 1 273 1
586 0 5 68 1 125 1 315 1 81 1 470 1
587 0 5 325 1 27 1 217 1 498 1 431 1
588 0 5 257 1 397 1 388 1 268 1 235 1
589 0 5 133 1 495 1 260 1 118 1 143 1
590 0 5 464 1 170 1 140 1 292 1 536 1
591 0 5 538 1 176 1 596 1 515 1 57 1
592 0 5 151 1 237 1 600 1 50 1 359 1
593 0 5 185 1 246 1 269 1 440 1 244 1
594 0 5 414 1 499 1 554 1 513 1 631 1
595 0 5 389 1 570 1 171 1 354 1 78 1
596 0 5 515 1 58 1 591 1 347 1 57 1
597 0 5 565 1 234 1 239 1 517 1 423 1
598 0 5 545 1 391 1 285 1 275 1 64 1
599 0 5 387 1 83 1 385 1 283 1 427 1
600 0 5 237 1 149 1 592 1 362 1 151 1
601 0 5 380 1 440 1 408 1 202 1 484 1
602 0 5 28 1 138 1 264 1 51 1 466 1
603 0 5 346 1 613 1 427 1 274 1 250 1
604 0 5 641 1 624 1 625 1 626 1 1 1
605 0 5 533 1 251 1 98 1 41 1 146 1
606 0 5 122 1 167 1 178 1 179 1 251 1
607 0 5 162 1 439 1 75 1 260 1 333 1
608 0 5 96 1 432 1 390 1 568 1 139 1
609 0 5 55 1 507 1 131 1 88 1 232 1
610 0 5 520 1 423 1 206 1 234 1 597 1
611 0 5 428 1 434 1 356 1 35 1 295 1
612 0 5 473 1 11 1 219 1 521 1 529 1
613 0 5 250 1 603 1 274 1 58 1 385 1
614 0 5 641 1 624 1 625 1 626 1 627 1
615 0 5 641 1 624 1 625 1 626 1 627 1
616 0 5 641 1 624 1 625 1 626 1 627 1
617 0 5 641 1 624 1 625 1 626 1 627 1
618 0 5 641 1 624 1 625 1 626 1 627 1
619 0 5 641 1 624 1 625 1 626 1 627 1
620 0 5 641 1 624 1 625 1 626 1 627 1
621 0 5 641 1 624 1 625 1 626 1 627 1
622 0 5 641 1 624 1 625 1 626 1 627 1
623 0 5 641 1 624 1 625 1 626 1 627 1
624 0 5 641 1 624 1 625 1 626 1 627 1
625 0 5 641 1 624 1 625 1 626 1 627 1
626 0 5 641 1 624 1 625 1 626 1 627 1
627 0 5 641 1 624 1 625 1 626 1 627 1
628 0 5 641 1 624 1 625 1 626 1 627 1
629 0 5 641 1 624 1 625 1 626 1 627 1
630 0 5 641 1 624 1 625 1 626 1 627 1
631 0 5 641 1 624 1 625 1 626 1 627 1
632 0 5 641 1 624 1 625 1 626 1 627 1
633 0 5 641 1 624 1 625 1 626 1 627 1
634 0 5 641 1 624 1 625 1 626 1 627 1
635 0 5 641 1 624 1 625 1 626 1 627 1
636 0 5 641 1 624 1 625 1 626 1 627 1
637 0 5 641 1 624 1 625 1 626 1 627 1
638 0 5 641 1 624 1 625 1 626 1 627 1
639 0 5 641 1 624 1 625 1 626 1 627 1
640 0 5 641 1 624 1 625 1 626 1 627 1
641 0 5 641 1 624 1 625 1 626 1 627 1
642 0 5 641 1 624 1 625 1 626 1 627 1
643 0 5 641 1 624 1 625 1 626 1 627 1
644 0 5 641 1 624 1 625 1 626 1 627 1
645 0 5 641 1 624 1 625 1 626 1 627 1
646 0 5 641 1 624 1 625 1 626 1 627 1
647 0 5 641 1 624 1 625 1 626 1 627 1
648 0 5 641 1 624 1 625 1 626 1 627 1
649 0 5 641 1 624 1 625 1 626 1 627 1
650 0 5 641 1 624 1 625 1 626 1 627 1
651 0 5 641 1 624 1 625 1 626 1 627 1
652 0 5 641 1 624 1 625 1 626 1 627 1
653 0 5 641 1 624 1 625 1 626 1 627 1
654 0 5 641 1 624 1 625 1 626 1 627 1
655 0 5 641 1 624 1 625 1 626 1 627 1
656 0 5 641 1 624 1 625 1 626 1 627 1
657 0 5 641 1 624 1 625 1 626 1 627 1
658 0 5 641 1 624 1 625 1 626 1 627 1
659 0 5 641 1 624 1 625 1 626 1 627 1
660 0 5 641 1 624 1 625 1 626 1 627 1
661 0 5 641 1 624 1 625 1 626 1 627 1
662 0 5 641 1 624 1 625 1 626 1 627 1
663 0 5 641 1 624 1 625 1 626 1 627 1
664 0 5 641 1 624 1 625 1 626 1 627 1
665 0 5 641 1 624 1 625 1 626 1 627 1
666 0 5 641 1 624 1 625 1 626 1 627 1
667 0 5 641 1 624 1 625 1 626 1 627 1
668 0 5 641 1 624 1 625 1 626 1 627 1
669 0 5 641 1 624 1 625 1 626 1 627 1
670 0 5 641 1 624 1 625 1 626 1 627 1
671 0 5 641 1 624 1 625 1 626 1 627 1
672 0 5 641 1 624 1 625 1 626 1 627 1
673 0 5 641 1 624 1 625 1 626 1 627 1
674 0 5 641 1 624 1 625 1 626 1 627 1
-1
EOF
